Nb of jobs, Nb of Machines, Time seed, Machine seed, Upper bound, Lower bound
8,8,-1,-1,-1,-1
Times
91,25,61,51,98,45,96,47
39,63,73,48,94,54,53,78
35,89,60,37,87,60,30,74
13,31,35,92,53,59,36,34
42,26,42,51,77,15,82,81
91,38,73,49,36,34,40,32
85,58,25,67,68,61,47,62
68,81,68,46,1,14,27,97
Machines
2,1,3,4,5,8,7,6
7,4,2,3,5,6,8,1
7,8,3,5,6,2,4,1
4,2,7,6,8,5,3,1
3,2,5,1,6,8,4,7
2,3,5,7,4,6,1,8
5,2,4,8,7,6,1,3
2,3,5,4,1,6,7,8
